p cnf 7230 16
871 -1163 0
871 -1166 0
-863 -1158 1159 0
863 -1160 0
-871 -1161 1162 0
871 -1169 0
-871 -1164 1165 0
-871 -1167 1168 0
-1162 1163 0
-1159 1160 0
1167 -1169 0
-1165 1166 0
1164 -1166 0
1161 -1163 0
1158 -1160 0
-1168 1169 0
